certificates/rado_a11_c171_N34.cnf
c Rad2 upper bound instance: x1 + 11*x2 - x3 = 171, interval [1,34]
p cnf 34 208
1 6 16 0
-1 -6 -16 0
1 17 0
-1 -17 0
1 18 28 0
-1 -18 -28 0
2 7 16 0
-2 -7 -16 0
2 17 18 0
-2 -17 -18 0
2 18 29 0
-2 -18 -29 0
3 8 16 0
-3 -8 -16 0
3 17 19 0
-3 -17 -19 0
3 18 30 0
-3 -18 -30 0
4 9 16 0
-4 -9 -16 0
4 17 20 0
-4 -17 -20 0
4 18 31 0
-4 -18 -31 0
5 10 16 0
-5 -10 -16 0
5 17 21 0
-5 -17 -21 0
5 18 32 0
-5 -18 -32 0
6 11 16 0
-6 -11 -16 0
6 17 22 0
-6 -17 -22 0
6 18 33 0
-6 -18 -33 0
1 7 15 0
-1 -7 -15 0
7 12 16 0
-7 -12 -16 0
7 17 23 0
-7 -17 -23 0
7 18 34 0
-7 -18 -34 0
2 8 15 0
-2 -8 -15 0
8 13 16 0
-8 -13 -16 0
8 17 24 0
-8 -17 -24 0
3 9 15 0
-3 -9 -15 0
9 14 16 0
-9 -14 -16 0
9 17 25 0
-9 -17 -25 0
4 10 15 0
-4 -10 -15 0
10 15 16 0
-10 -15 -16 0
10 17 26 0
-10 -17 -26 0
5 11 15 0
-5 -11 -15 0
11 16 0
-11 -16 0
11 17 27 0
-11 -17 -27 0
6 12 15 0
-6 -12 -15 0
12 16 17 0
-12 -16 -17 0
12 17 28 0
-12 -17 -28 0
7 13 15 0
-7 -13 -15 0
13 16 18 0
-13 -16 -18 0
13 17 29 0
-13 -17 -29 0
8 14 15 0
-8 -14 -15 0
14 16 19 0
-14 -16 -19 0
14 17 30 0
-14 -17 -30 0
9 15 0
-9 -15 0
15 16 20 0
-15 -16 -20 0
15 17 31 0
-15 -17 -31 0
16 21 0
-16 -21 0
16 17 32 0
-16 -17 -32 0
11 15 17 0
-11 -15 -17 0
16 17 22 0
-16 -17 -22 0
17 33 0
-17 -33 0
1 14 18 0
-1 -14 -18 0
12 15 18 0
-12 -15 -18 0
16 18 23 0
-16 -18 -23 0
17 18 34 0
-17 -18 -34 0
2 14 19 0
-2 -14 -19 0
13 15 19 0
-13 -15 -19 0
16 19 24 0
-16 -19 -24 0
3 14 20 0
-3 -14 -20 0
14 15 20 0
-14 -15 -20 0
16 20 25 0
-16 -20 -25 0
4 14 21 0
-4 -14 -21 0
15 21 0
-15 -21 0
16 21 26 0
-16 -21 -26 0
5 14 22 0
-5 -14 -22 0
15 16 22 0
-15 -16 -22 0
16 22 27 0
-16 -22 -27 0
6 14 23 0
-6 -14 -23 0
15 17 23 0
-15 -17 -23 0
16 23 28 0
-16 -23 -28 0
7 14 24 0
-7 -14 -24 0
15 18 24 0
-15 -18 -24 0
16 24 29 0
-16 -24 -29 0
8 14 25 0
-8 -14 -25 0
15 19 25 0
-15 -19 -25 0
16 25 30 0
-16 -25 -30 0
9 14 26 0
-9 -14 -26 0
15 20 26 0
-15 -20 -26 0
16 26 31 0
-16 -26 -31 0
10 14 27 0
-10 -14 -27 0
15 21 27 0
-15 -21 -27 0
16 27 32 0
-16 -27 -32 0
11 14 28 0
-11 -14 -28 0
15 22 28 0
-15 -22 -28 0
16 28 33 0
-16 -28 -33 0
1 13 29 0
-1 -13 -29 0
12 14 29 0
-12 -14 -29 0
15 23 29 0
-15 -23 -29 0
16 29 34 0
-16 -29 -34 0
2 13 30 0
-2 -13 -30 0
13 14 30 0
-13 -14 -30 0
15 24 30 0
-15 -24 -30 0
3 13 31 0
-3 -13 -31 0
14 31 0
-14 -31 0
15 25 31 0
-15 -25 -31 0
4 13 32 0
-4 -13 -32 0
14 15 32 0
-14 -15 -32 0
15 26 32 0
-15 -26 -32 0
5 13 33 0
-5 -13 -33 0
14 16 33 0
-14 -16 -33 0
15 27 33 0
-15 -27 -33 0
6 13 34 0
-6 -13 -34 0
14 17 34 0
-14 -17 -34 0
15 28 34 0
-15 -28 -34 0
