certificates/rado_a11_c171_N34.drat
-29 17 -34 0
2 17 -34 0
-33 -34 0
-34 0
-13 -17 0
d -13 -29 -17 0
33 0
-17 0
1 0
18 0
14 0
-28 0
-6 0
0
